data/lp_files/q3/37_9.lp
\ Model foo
\ LP format - for model browsing. Use MPS format to capture full model detail.
Minimize
  z
Subject To
 allocateEach[1]: x[1,1] + x[2,1] = 1
 allocateEach[2]: x[1,2] + x[2,2] = 1
 allocateEach[3]: x[1,3] + x[2,3] = 1
 allocateEach[4]: x[1,4] + x[2,4] = 1
 allocateEach[5]: x[1,5] + x[2,5] = 1
 allocateEach[6]: x[1,6] + x[2,6] = 1
 allocateEach[7]: x[1,7] + x[2,7] = 1
 allocateEach[8]: x[1,8] + x[2,8] = 1
 allocateEach[9]: x[1,9] + x[2,9] = 1
 allocateEach[10]: x[1,10] + x[2,10] = 1
 allocateEach[11]: x[1,11] + x[2,11] = 1
 allocateEach[12]: x[1,12] + x[2,12] = 1
 allocateEach[13]: x[1,13] + x[2,13] = 1
 allocateEach[14]: x[1,14] + x[2,14] = 1
 allocateEach[15]: x[1,15] + x[2,15] = 1
 allocateEach[16]: x[1,16] + x[2,16] = 1
 allocateEach[17]: x[1,17] + x[2,17] = 1
 allocateAllCash: cashProportion[1] + cashProportion[2] = 1
 findWorstP[1,2]: z + 0.0976047787299666 cashProportion[1]
   - 0.0976047787299666 cashProportion[2] + 0.0241864641692857 x[1,1]
   + 0.0188377222948836 x[1,2] + 0.070226638296211 x[1,3]
   + 0.0100532922091866 x[1,4] + 0.0362113729088176 x[1,5]
   + 0.0973705272610147 x[1,6] + 0.0787084935678451 x[1,7]
   + 8.0035918558572631e-04 x[1,8] + 0.00500712514884729 x[1,9]
   + 0.0221660452495754 x[1,10] + 0.0797333437445097 x[1,11]
   + 0.0692505905089113 x[1,12] + 0.0913580728912488 x[1,13]
   + 0.0921681925547075 x[1,14] + 0.0903234622367111 x[1,15]
   + 0.0765709489136588 x[1,16] + 0.0394225701290335 x[1,17]
   - 0.0241864641692857 x[2,1] - 0.0188377222948836 x[2,2]
   - 0.070226638296211 x[2,3] - 0.0100532922091866 x[2,4]
   - 0.0362113729088176 x[2,5] - 0.0973705272610147 x[2,6]
   - 0.0787084935678451 x[2,7] - 8.0035918558572631e-04 x[2,8]
   - 0.00500712514884729 x[2,9] - 0.0221660452495754 x[2,10]
   - 0.0797333437445097 x[2,11] - 0.0692505905089113 x[2,12]
   - 0.0913580728912488 x[2,13] - 0.0921681925547075 x[2,14]
   - 0.0903234622367111 x[2,15] - 0.0765709489136588 x[2,16]
   - 0.0394225701290335 x[2,17] >= 0
 findWorstP[2,1]: z - 0.109346979836417 cashProportion[1]
   + 0.109346979836417 cashProportion[2] - 0.0471941564973975 x[1,1]
   - 0.087280759305428 x[1,2] - 0.0570463193806587 x[1,3]
   - 0.0450509556926038 x[1,4] - 0.0941696190351223 x[1,5]
   - 0.0376372304596947 x[1,6] - 0.0416940034116258 x[1,7]
   - 0.0663298779687705 x[1,8] - 0.0699383283033723 x[1,9]
   - 0.0481673446179417 x[1,10] - 0.1021847526571316 x[1,11]
   - 0.0215413550277741 x[1,12] - 0.0463631194506408 x[1,13]
   - 0.0601408389100293 x[1,14] - 0.0225801513362201 x[1,15]
   - 0.025969907711149 x[1,16] - 0.017364300398023 x[1,17]
   + 0.0471941564973975 x[2,1] + 0.087280759305428 x[2,2]
   + 0.0570463193806587 x[2,3] + 0.0450509556926038 x[2,4]
   + 0.0941696190351223 x[2,5] + 0.0376372304596947 x[2,6]
   + 0.0416940034116258 x[2,7] + 0.0663298779687705 x[2,8]
   + 0.0699383283033723 x[2,9] + 0.0481673446179417 x[2,10]
   + 0.1021847526571316 x[2,11] + 0.0215413550277741 x[2,12]
   + 0.0463631194506408 x[2,13] + 0.0601408389100293 x[2,14]
   + 0.0225801513362201 x[2,15] + 0.025969907711149 x[2,16]
   + 0.017364300398023 x[2,17] >= 0
Bounds
 z <= 1
 -infinity <= cashProportion[1] <= 1
 -infinity <= cashProportion[2] <= 1
Binaries
 x[1,1] x[1,2] x[1,3] x[1,4] x[1,5] x[1,6] x[1,7] x[1,8] x[1,9] x[1,10]
 x[1,11] x[1,12] x[1,13] x[1,14] x[1,15] x[1,16] x[1,17] x[2,1] x[2,2]
 x[2,3] x[2,4] x[2,5] x[2,6] x[2,7] x[2,8] x[2,9] x[2,10] x[2,11] x[2,12]
 x[2,13] x[2,14] x[2,15] x[2,16] x[2,17]
End
