data/mps_files/q3/37_9.mps
NAME foo
ROWS
 N  OBJ
 E  allocateEach[1]
 E  allocateEach[2]
 E  allocateEach[3]
 E  allocateEach[4]
 E  allocateEach[5]
 E  allocateEach[6]
 E  allocateEach[7]
 E  allocateEach[8]
 E  allocateEach[9]
 E  allocateEach[10]
 E  allocateEach[11]
 E  allocateEach[12]
 E  allocateEach[13]
 E  allocateEach[14]
 E  allocateEach[15]
 E  allocateEach[16]
 E  allocateEach[17]
 E  allocateAllCash
 G  findWorstP[1,2]
 G  findWorstP[2,1]
COLUMNS
    z         OBJ       1
    z         findWorstP[1,2]  1
    z         findWorstP[2,1]  1
    cashProportion[1]  allocateAllCash  1
    cashProportion[1]  findWorstP[1,2]  9.7604778729966646e-02
    cashProportion[1]  findWorstP[2,1]  -1.0934697983641696e-01
    cashProportion[2]  allocateAllCash  1
    cashProportion[2]  findWorstP[1,2]  -9.7604778729966646e-02
    cashProportion[2]  findWorstP[2,1]  1.0934697983641696e-01
    MARKER    'MARKER'                 'INTORG'
    x[1,1]    allocateEach[1]  1
    x[1,1]    findWorstP[1,2]  2.4186464169285726e-02
    x[1,1]    findWorstP[2,1]  -4.7194156497397548e-02
    x[1,2]    allocateEach[2]  1
    x[1,2]    findWorstP[1,2]  1.8837722294883556e-02
    x[1,2]    findWorstP[2,1]  -0.087280759305428
    x[1,3]    allocateEach[3]  1
    x[1,3]    findWorstP[1,2]  7.0226638296210980e-02
    x[1,3]    findWorstP[2,1]  -5.7046319380658718e-02
    x[1,4]    allocateEach[4]  1
    x[1,4]    findWorstP[1,2]  1.0053292209186561e-02
    x[1,4]    findWorstP[2,1]  -4.5050955692603777e-02
    x[1,5]    allocateEach[5]  1
    x[1,5]    findWorstP[1,2]  3.6211372908817617e-02
    x[1,5]    findWorstP[2,1]  -9.4169619035122262e-02
    x[1,6]    allocateEach[6]  1
    x[1,6]    findWorstP[1,2]  9.7370527261014708e-02
    x[1,6]    findWorstP[2,1]  -3.7637230459694707e-02
    x[1,7]    allocateEach[7]  1
    x[1,7]    findWorstP[1,2]  7.8708493567845081e-02
    x[1,7]    findWorstP[2,1]  -4.1694003411625775e-02
    x[1,8]    allocateEach[8]  1
    x[1,8]    findWorstP[1,2]  8.0035918558572631e-04
    x[1,8]    findWorstP[2,1]  -6.6329877968770518e-02
    x[1,9]    allocateEach[9]  1
    x[1,9]    findWorstP[1,2]  5.0071251488472872e-03
    x[1,9]    findWorstP[2,1]  -6.9938328303372266e-02
    x[1,10]   allocateEach[10]  1
    x[1,10]   findWorstP[1,2]  2.2166045249575418e-02
    x[1,10]   findWorstP[2,1]  -4.8167344617941657e-02
    x[1,11]   allocateEach[11]  1
    x[1,11]   findWorstP[1,2]  7.9733343744509730e-02
    x[1,11]   findWorstP[2,1]  -1.0218475265713162e-01
    x[1,12]   allocateEach[12]  1
    x[1,12]   findWorstP[1,2]  6.9250590508911317e-02
    x[1,12]   findWorstP[2,1]  -2.1541355027774135e-02
    x[1,13]   allocateEach[13]  1
    x[1,13]   findWorstP[1,2]  9.1358072891248754e-02
    x[1,13]   findWorstP[2,1]  -4.6363119450640776e-02
    x[1,14]   allocateEach[14]  1
    x[1,14]   findWorstP[1,2]  9.2168192554707484e-02
    x[1,14]   findWorstP[2,1]  -6.0140838910029318e-02
    x[1,15]   allocateEach[15]  1
    x[1,15]   findWorstP[1,2]  0.0903234622367111
    x[1,15]   findWorstP[2,1]  -2.2580151336220097e-02
    x[1,16]   allocateEach[16]  1
    x[1,16]   findWorstP[1,2]  7.6570948913658815e-02
    x[1,16]   findWorstP[2,1]  -2.5969907711149022e-02
    x[1,17]   allocateEach[17]  1
    x[1,17]   findWorstP[1,2]  3.9422570129033517e-02
    x[1,17]   findWorstP[2,1]  -1.7364300398023010e-02
    x[2,1]    allocateEach[1]  1
    x[2,1]    findWorstP[1,2]  -2.4186464169285726e-02
    x[2,1]    findWorstP[2,1]  4.7194156497397548e-02
    x[2,2]    allocateEach[2]  1
    x[2,2]    findWorstP[1,2]  -1.8837722294883556e-02
    x[2,2]    findWorstP[2,1]  0.087280759305428
    x[2,3]    allocateEach[3]  1
    x[2,3]    findWorstP[1,2]  -7.0226638296210980e-02
    x[2,3]    findWorstP[2,1]  5.7046319380658718e-02
    x[2,4]    allocateEach[4]  1
    x[2,4]    findWorstP[1,2]  -1.0053292209186561e-02
    x[2,4]    findWorstP[2,1]  4.5050955692603777e-02
    x[2,5]    allocateEach[5]  1
    x[2,5]    findWorstP[1,2]  -3.6211372908817617e-02
    x[2,5]    findWorstP[2,1]  9.4169619035122262e-02
    x[2,6]    allocateEach[6]  1
    x[2,6]    findWorstP[1,2]  -9.7370527261014708e-02
    x[2,6]    findWorstP[2,1]  3.7637230459694707e-02
    x[2,7]    allocateEach[7]  1
    x[2,7]    findWorstP[1,2]  -7.8708493567845081e-02
    x[2,7]    findWorstP[2,1]  4.1694003411625775e-02
    x[2,8]    allocateEach[8]  1
    x[2,8]    findWorstP[1,2]  -8.0035918558572631e-04
    x[2,8]    findWorstP[2,1]  6.6329877968770518e-02
    x[2,9]    allocateEach[9]  1
    x[2,9]    findWorstP[1,2]  -5.0071251488472872e-03
    x[2,9]    findWorstP[2,1]  6.9938328303372266e-02
    x[2,10]   allocateEach[10]  1
    x[2,10]   findWorstP[1,2]  -2.2166045249575418e-02
    x[2,10]   findWorstP[2,1]  4.8167344617941657e-02
    x[2,11]   allocateEach[11]  1
    x[2,11]   findWorstP[1,2]  -7.9733343744509730e-02
    x[2,11]   findWorstP[2,1]  1.0218475265713162e-01
    x[2,12]   allocateEach[12]  1
    x[2,12]   findWorstP[1,2]  -6.9250590508911317e-02
    x[2,12]   findWorstP[2,1]  2.1541355027774135e-02
    x[2,13]   allocateEach[13]  1
    x[2,13]   findWorstP[1,2]  -9.1358072891248754e-02
    x[2,13]   findWorstP[2,1]  4.6363119450640776e-02
    x[2,14]   allocateEach[14]  1
    x[2,14]   findWorstP[1,2]  -9.2168192554707484e-02
    x[2,14]   findWorstP[2,1]  6.0140838910029318e-02
    x[2,15]   allocateEach[15]  1
    x[2,15]   findWorstP[1,2]  -0.0903234622367111
    x[2,15]   findWorstP[2,1]  2.2580151336220097e-02
    x[2,16]   allocateEach[16]  1
    x[2,16]   findWorstP[1,2]  -7.6570948913658815e-02
    x[2,16]   findWorstP[2,1]  2.5969907711149022e-02
    x[2,17]   allocateEach[17]  1
    x[2,17]   findWorstP[1,2]  -3.9422570129033517e-02
    x[2,17]   findWorstP[2,1]  1.7364300398023010e-02
    MARKER    'MARKER'                 'INTEND'
RHS
    RHS1      allocateEach[1]  1
    RHS1      allocateEach[2]  1
    RHS1      allocateEach[3]  1
    RHS1      allocateEach[4]  1
    RHS1      allocateEach[5]  1
    RHS1      allocateEach[6]  1
    RHS1      allocateEach[7]  1
    RHS1      allocateEach[8]  1
    RHS1      allocateEach[9]  1
    RHS1      allocateEach[10]  1
    RHS1      allocateEach[11]  1
    RHS1      allocateEach[12]  1
    RHS1      allocateEach[13]  1
    RHS1      allocateEach[14]  1
    RHS1      allocateEach[15]  1
    RHS1      allocateEach[16]  1
    RHS1      allocateEach[17]  1
    RHS1      allocateAllCash  1
BOUNDS
 UP BND1      z         1
 MI BND1      cashProportion[1]
 UP BND1      cashProportion[1]  1
 MI BND1      cashProportion[2]
 UP BND1      cashProportion[2]  1
 BV BND1      x[1,1]  
 BV BND1      x[1,2]  
 BV BND1      x[1,3]  
 BV BND1      x[1,4]  
 BV BND1      x[1,5]  
 BV BND1      x[1,6]  
 BV BND1      x[1,7]  
 BV BND1      x[1,8]  
 BV BND1      x[1,9]  
 BV BND1      x[1,10] 
 BV BND1      x[1,11] 
 BV BND1      x[1,12] 
 BV BND1      x[1,13] 
 BV BND1      x[1,14] 
 BV BND1      x[1,15] 
 BV BND1      x[1,16] 
 BV BND1      x[1,17] 
 BV BND1      x[2,1]  
 BV BND1      x[2,2]  
 BV BND1      x[2,3]  
 BV BND1      x[2,4]  
 BV BND1      x[2,5]  
 BV BND1      x[2,6]  
 BV BND1      x[2,7]  
 BV BND1      x[2,8]  
 BV BND1      x[2,9]  
 BV BND1      x[2,10] 
 BV BND1      x[2,11] 
 BV BND1      x[2,12] 
 BV BND1      x[2,13] 
 BV BND1      x[2,14] 
 BV BND1      x[2,15] 
 BV BND1      x[2,16] 
 BV BND1      x[2,17] 
ENDATA
